maxTime = 8;
numTeachers = 20;


%numTeachers = 3;
%SHIFT = 1..numShifts;
shiftDuration = [2,1,0];
shiftValue = [2,1,0];
% teacher1 -> 01 to 04 
% teacher2 -> 05 to 08 
% teacher3 -> 03 to 05
%calendar = [| true, true, true, true, true, false, false, false,
%            | false, false, false, false, true, true, true, true,
%            | false, false, true, true, true, true, false, false |];



calendar = array2d(TEACHERs, TIME, [ bernoulli(i mod 2) | i in 1..(card(TEACHERs)*card(TIME)) ]);

%minNeeded = [|2, 2, 2, 2, 2, 2, 2, 2,
%             |2, 2, 2, 2, 2, 2, 2, 2,
%             |6, 6, 6, 6, 6, 6, 6, 6 |];
           
minNeeded = array2d(SHIFTs, TIME, [ 1 | i in 1..(card(SHIFTs)*maxTime) ]);             

shiftName = ["regular","monitor","off"];

teacherName = array1d(TEACHERs, [ "teacher"++show(i)  | i in 1..numTeachers]);